NAME: random-11-8201
TYPE: TSP
COMMENT: size=11 seed=8201
DIMENSION: 24
EDGE_WEIGHT_TYPE: EUC_2D
NODE_COORD_SECTION
+0 207 583
-0 207 583
+1 187 307
-1 249 629
+2 733 254
-2 625 592
+3 234 341
-3 1 535
+4 639 768
-4 672 456
+5 222 65
-5 499 947
+6 27 846
-6 61 664
+7 99 85
-7 642 276
+8 568 984
-8 518 156
+9 143 608
-9 210 609
+10 192 193
-10 871 370
+11 564 133
-11 368 306
PRECEDENCE_SECTION
+0 -0
+1 -1
+2 -2
+3 -3
+4 -4
+5 -5
+6 -6
+7 -7
+8 -8
+9 -9
+10 -10
+11 -11
EOF
